(set-logic QF_NRA)

;parameters
(declare-fun p0 () Real)
(declare-fun p1 () Real)
(declare-fun p2 () Real)
(declare-fun p3 () Real)

;constants
(declare-fun battery_charging_rate () Real)
(declare-fun battery_discharge_rate_fly () Real)
(declare-fun battery_discharge_rate_hover () Real)
(declare-fun queue_data_rate () Real)
(declare-fun queue_upload_rate () Real)
(declare-fun drone_velocity () Real)

(assert(= drone_velocity 10))
(assert(= battery_charging_rate 50))
(assert(= battery_discharge_rate_fly 1))
(assert(= battery_discharge_rate_hover 1))
(assert(= queue_data_rate 1))
(assert(= queue_upload_rate 1))

(assert (<= p0 100))
(assert (>= p0 0))
(assert (<= p1 100))
(assert (>= p1 0))
(assert (<= p2 100))
(assert (>= p2 0))
(assert (<= p3 100))
(assert (>= p3 0))

; Add all phi(counterexample) here
counterexamples

(check-sat)
(exit)
